System = Si
ISTART = 0
ICHARG = 2
IBRION=2
ISIF=3
NSW=10
ENCUT = 300
EDIFF = 1E-6
ISMEAR = -5
SIGMA = 0.05
LREAL = .FALSE.
LWAVE = .TRUE.
LPROCAR = .TRUE.

