Cubic diamond                           
   3.83907152572605     
     0.7918436264343687    0.7918436264343687   -0.0000000000000000
    -0.0000000000000000    0.7918436264343687    0.7918436264343687
     0.7918436264343687    0.0000000000000000    0.7918436264343687
   Si
     2
Direct
  0.0000000000000000  0.0000000000000000  0.0000000000000000
  0.2500000000000000  0.2500000000000000  0.2500000000000000
 
  0.00000000E+00  0.00000000E+00  0.00000000E+00
  0.00000000E+00  0.00000000E+00  0.00000000E+00

