System = Si
ISTART = 1
ICHARG = 1
ENCUT = 520
EDIFF = 1E-6
ISMEAR = -5
SIGMA = 0.05
LREAL = Auto
LWAVE = .TRUE.
LCHARG = .FALSE.
ADDGRID = .TRUE.

