Non-uniform grid
0
Gamma
4 4 4
0.125 0.375 0.375
0.375 0.125 0.375
0.375 0.375 0.125
0.125 0.125 0.125
0.500 0.500 0.500
0.500 0.000 0.000
0.000 0.500 0.000
0.000 0.000 0.500
1.000 1.000 1.000
1.000 0.000 0.000
0.000 1.000 0.000
0.000 0.000 1.000
1.000 1.000 0.000
1.000 0.000 1.000
0.000 1.000 1.000
0.000 0.000 0.000

