Cu4 Cl4
1.0
5.404632 0.000000 0.000000
0.000000 5.404632 0.000000
0.000000 0.000000 5.404632
Cu Cl
4 4
direct
0.000000 0.000000 0.000000 Cu
0.000000 0.500000 0.500000 Cu
0.500000 0.000000 0.500000 Cu
0.500000 0.500000 0.000000 Cu
0.250000 0.250000 0.750000 Cl
0.250000 0.750000 0.250000 Cl
0.750000 0.250000 0.250000 Cl
0.750000 0.750000 0.750000 Cl
